decision_x1=[0,2];
decision_x2=[0,2];
decision_x3=[0,2];
decision_x4=[0,2];
decision_x5=[0,2];
decision_x6=[0,2];
decision_x7=[0,2];
decision_x8=[0,2];
decision_x9=[0,2];
decision_x10=[0,2];
random_y1=[0,2];
random_y2=[0,2];
constraint_x3_x1=[
0,1,7.2|
0,2,7.1|
1,0,5.4|
1,2,5.8|
2,0,8.9|
2,1,8.3|
];
constraint_x4_x1=[
0,1,1.9|
0,2,5.2|
1,0,3.3|
1,2,5.7|
2,0,9.2|
2,1,0.17|
];
constraint_x5_x1=[
0,1,0.5|
0,2,6.4|
1,0,6.6|
1,2,7.8|
2,0,1.8|
2,1,2.9|
];
constraint_x5_x3=[
0,1,9.7|
0,2,0.92|
1,0,2.8|
1,2,0.85|
2,0,3.9|
2,1,9|
];
constraint_x5_x4=[
0,1,9.4|
0,2,3.6|
1,0,6.7|
1,2,5.2|
2,0,2.3|
2,1,7.4|
];
constraint_x6_x3=[
0,1,3.4|
0,2,4.4|
1,0,8.7|
1,2,5.3|
2,0,8.1|
2,1,6.1|
];
constraint_x6_x4=[
0,1,7.5|
0,2,3.4|
1,0,5.2|
1,2,0.28|
2,0,0.23|
2,1,1.3|
];
constraint_x7_x1=[
0,1,6.1|
0,2,5.4|
1,0,0.89|
1,2,5|
2,0,1.2|
2,1,4|
];
constraint_x7_x2=[
0,1,2.1|
0,2,7.5|
1,0,7.2|
1,2,8.9|
2,0,0.69|
2,1,1.7|
];
constraint_x7_x3=[
0,1,5|
0,2,4.2|
1,0,5.9|
1,2,0.58|
2,0,7.2|
2,1,9.9|
];
constraint_x7_x5=[
0,1,5.6|
0,2,7.4|
1,0,2.6|
1,2,8.7|
2,0,9.7|
2,1,3.8|
];
constraint_x8_x3=[
0,1,3|
0,2,0.79|
1,0,1.8|
1,2,7.2|
2,0,8.3|
2,1,7.7|
];
constraint_x8_x6=[
0,1,8.3|
0,2,8.8|
1,0,7.7|
1,2,5.4|
2,0,7.9|
2,1,9.6|
];
constraint_x9_x1=[
0,1,2.8|
0,2,4.7|
1,0,1.8|
1,2,1.9|
2,0,7.1|
2,1,9.5|
];
constraint_x9_x4=[
0,1,8.6|
0,2,8|
1,0,2.1|
1,2,0.46|
2,0,3.2|
2,1,4.7|
];
constraint_x9_x5=[
0,1,1.3|
0,2,9.5|
1,0,1.1|
1,2,4.1|
2,0,2.5|
2,1,8.4|
];
constraint_x9_x6=[
0,1,4.3|
0,2,5.7|
1,0,5.5|
1,2,7.4|
2,0,7.5|
2,1,0.92|
];
constraint_x10_x1=[
0,1,3.9|
0,2,9.9|
1,0,4.4|
1,2,1.7|
2,0,9.9|
2,1,5.2|
];
constraint_x10_x3=[
0,1,3.7|
0,2,0.95|
1,0,3.8|
1,2,4.6|
2,0,5.3|
2,1,8.3|
];
constraint_x10_x4=[
0,1,4.6|
0,2,4.3|
1,0,3.4|
1,2,8.1|
2,0,2.5|
2,1,2.9|
];
constraint_x10_x5=[
0,1,2.6|
0,2,1.8|
1,0,4.6|
1,2,3.7|
2,0,9.8|
2,1,8.8|
];
constraint_x10_x8=[
0,1,1.1|
0,2,5|
1,0,8.1|
1,2,2.7|
2,0,3.5|
2,1,7.5|
];
constraint_x10_x9=[
0,1,9.1|
0,2,3.8|
1,0,6.7|
1,2,8.7|
2,0,4.3|
2,1,0.75|
];
constraint_x1_y1=[
0,0,9.8|
0,1,5|
0,2,0.24|
1,0,1.2|
1,1,1.9|
1,2,7.9|
2,0,5.1|
2,1,8.9|
2,2,3.3|
];
constraint_x2_y2=[
0,0,3.3|
0,1,9.9|
0,2,9.1|
1,0,2.5|
1,1,3.2|
1,2,5.2|
2,0,7.9|
2,1,0.19|
2,2,1.9|
];
initial_distribution_y1=[0.35,0.38,0.27];
initial_distribution_y2=[0.43,0.062,0.51];
transition_y1=[
0.68,0.027,0.29|
0.54,0.11,0.34|
0.44,0.31,0.25|
];
transition_y2=[
0.032,0.36,0.6|
0.49,0.22,0.29|
0.41,0.097,0.49|
];
